0 4118
1 3810
2 3708
3 3658
4 3639
5 3568
6 3507
7 3409
8 3409
9 3375
10 3375
11 3375
12 3363
13 3363
14 3363
15 3310
16 3286
17 3255
18 3255
19 3255
20 3217
21 3217
22 3217
23 3217
24 3205
25 3205
26 3131
27 3131
28 3131
29 3131
30 3098
31 3098
32 3098
33 3098
34 3071
35 3071
36 3046
37 3046
38 3024
39 2964
40 2964
41 2964
42 2962
43 2960
44 2935
45 2935
46 2886
47 2886
48 2868
49 2842
50 2842
51 2842
52 2842
53 2842
54 2819
55 2819
56 2819
57 2817
58 2817
59 2817
60 2817
61 2815
62 2815
63 2815
64 2815
65 2799
66 2799
67 2799
68 2799
69 2799
70 2799
71 2788
72 2786
73 2786
74 2786
75 2784
76 2783
77 2783
78 2770
79 2770
80 2770
81 2770
82 2765
83 2765
84 2765
85 2759
86 2759
87 2759
88 2759
89 2759
90 2759
91 2759
92 2759
93 2759
94 2759
95 2759
96 2759
97 2758
98 2755
99 2755
100 2755
101 2755
102 2736
103 2736
104 2736
105 2720
106 2711
107 2711
108 2711
109 2711
110 2711
111 2711
112 2711
113 2683
114 2683
115 2683
116 2683
117 2683
118 2683
119 2683
120 2683
121 2683
122 2671
123 2671
124 2671
125 2653
126 2653
127 2641
128 2641
129 2641
130 2641
131 2641
132 2641
133 2641
134 2629
135 2629
136 2629
137 2629
138 2629
139 2629
140 2629
141 2629
142 2629
143 2629
144 2629
145 2629
146 2629
147 2628
148 2628
149 2628
150 2628
151 2628
152 2628
153 2628
154 2628
155 2628
156 2626
157 2626
158 2626
159 2626
160 2626
161 2626
162 2626
163 2624
164 2624
165 2621
166 2621
167 2621
168 2620
169 2620
170 2620
171 2620
172 2620
173 2620
174 2620
175 2616
176 2616
177 2616
178 2616
179 2616
180 2603
181 2603
182 2603
183 2603
184 2603
185 2603
186 2603
187 2603
188 2603
189 2601
190 2601
191 2601
192 2601
193 2601
194 2601
195 2601
196 2599
197 2599
198 2599
199 2588
200 2588
201 2588
202 2588
203 2588
204 2588
205 2588
206 2584
207 2584
208 2584
209 2584
210 2584
211 2583
212 2583
213 2583
214 2583
215 2583
216 2583
217 2583
218 2583
219 2583
220 2583
221 2582
222 2582
223 2582
224 2582
225 2582
226 2582
227 2582
228 2582
229 2582
230 2582
231 2582
232 2569
233 2569
234 2569
235 2569
236 2569
237 2569
238 2569
239 2569
240 2569
241 2568
242 2568
243 2568
244 2568
245 2568
246 2568
247 2568
248 2568
249 2568
250 2568
251 2568
252 2568
253 2568
254 2568
255 2568
256 2568
257 2568
258 2568
259 2568
260 2568
261 2568
262 2568
263 2568
264 2568
265 2568
266 2568
267 2568
268 2568
269 2568
270 2568
271 2568
272 2568
273 2568
274 2568
275 2568
276 2568
277 2567
278 2567
279 2567
280 2567
281 2567
282 2567
283 2567
284 2567
285 2567
286 2567
287 2567
288 2567
289 2567
290 2567
291 2567
292 2567
293 2567
294 2567
295 2567
296 2567
297 2567
298 2567
299 2567
300 2567
301 2567
302 2567
303 2567
304 2567
305 2567
306 2567
307 2567
308 2567
309 2567
310 2567
311 2567
312 2567
313 2567
314 2567
315 2567
316 2567
317 2567
318 2567
319 2567
320 2567
321 2567
322 2567
323 2567
324 2567
325 2567
326 2567
327 2567
328 2567
329 2567
330 2567
331 2567
332 2567
333 2567
334 2567
335 2567
336 2567
337 2567
338 2567
339 2567
340 2567
341 2567
342 2567
343 2567
344 2567
345 2567
346 2567
347 2567
348 2567
349 2567
350 2567
351 2567
352 2567
353 2567
354 2567
355 2567
356 2567
357 2567
358 2567
359 2567
360 2567
361 2567
362 2567
363 2567
364 2567
365 2567
366 2567
367 2567
368 2567
369 2567
370 2567
371 2567
372 2567
373 2567
374 2567
375 2567
376 2567
377 2567
378 2567
379 2567
380 2567
381 2567
382 2567
383 2567
384 2567
385 2567
386 2567
387 2567
388 2567
389 2567
390 2567
391 2567
392 2566
393 2566
394 2566
395 2566
396 2566
397 2566
398 2566
399 2566
400 2566
401 2566
402 2566
403 2566
404 2566
405 2566
406 2566
407 2566
408 2566
409 2566
410 2566
411 2566
412 2566
413 2566
414 2566
415 2566
416 2566
417 2566
418 2566
419 2566
420 2566
421 2566
422 2566
423 2566
424 2566
425 2566
426 2566
427 2566
428 2566
429 2566
430 2566
431 2566
432 2566
433 2566
434 2566
435 2566
436 2566
437 2566
438 2566
439 2566
440 2566
441 2566
442 2566
443 2566
444 2566
445 2566
446 2566
447 2566
448 2566
449 2566
450 2566
451 2566
452 2566
453 2566
454 2566
455 2566
456 2566
457 2566
458 2566
459 2566
460 2566
461 2566
462 2566
463 2566
464 2566
465 2566
466 2566
467 2566
468 2566
469 2566
470 2566
471 2566
472 2566
473 2566
474 2566
475 2566
476 2566
477 2566
478 2566
479 2566
480 2566
481 2566
482 2566
483 2566
484 2566
485 2566
486 2566
487 2566
488 2566
489 2566
490 2566
491 2566
492 2566
493 2566
494 2566
495 2566
496 2566
497 2566
498 2566
499 2566
500 2566
501 2566
502 2566
503 2566
504 2566
505 2566
506 2566
507 2566
508 2566
509 2566
510 2566
511 2566
512 2566
513 2566
514 2566
515 2566
516 2566
517 2566
518 2566
519 2566
520 2566
521 2566
522 2566
523 2566
524 2566
525 2566
526 2566
527 2566
528 2566
529 2566
530 2566
531 2566
532 2566
533 2566
534 2566
535 2566
536 2566
537 2566
538 2566
539 2566
540 2566
541 2566
542 2566
543 2566
544 2566
545 2566
546 2566
547 2566
548 2566
549 2566
550 2566
551 2566
552 2566
553 2566
554 2566
555 2566
556 2566
557 2566
558 2566
559 2566
560 2566
561 2566
562 2566
563 2566
564 2566
565 2566
566 2566
567 2566
568 2566
569 2566
570 2566
571 2566
572 2566
573 2566
574 2566
575 2566
576 2566
577 2566
578 2566
579 2566
580 2566
581 2566
582 2566
583 2566
584 2566
585 2566
586 2566
587 2566
588 2566
589 2566
590 2566
591 2566
592 2566
593 2566
594 2566
595 2566
596 2566
597 2566
598 2566
599 2566
600 2566
601 2566
602 2566
603 2566
604 2566
605 2565
606 2565
607 2565
608 2565
609 2565
610 2565
611 2565
612 2565
613 2563
614 2563
615 2563
616 2563
617 2563
618 2563
619 2563
620 2563
621 2563
622 2563
623 2563
624 2563
625 2563
626 2563
627 2563
628 2563
629 2563
630 2563
631 2563
632 2563
633 2563
634 2563
635 2563
636 2563
637 2563
638 2563
639 2563
640 2563
641 2563
642 2563
643 2563
644 2563
645 2563
646 2563
647 2563
648 2563
649 2563
650 2563
651 2563
652 2563
653 2563
654 2563
655 2563
656 2563
657 2563
658 2563
659 2563
660 2563
661 2563
662 2563
663 2563
664 2563
665 2563
666 2563
667 2563
668 2563
669 2563
670 2563
671 2563
672 2563
673 2563
674 2563
675 2563
676 2563
677 2563
678 2563
679 2563
680 2563
681 2563
682 2563
683 2563
684 2563
685 2563
686 2563
687 2563
688 2563
689 2563
690 2563
691 2563
692 2563
693 2563
694 2563
695 2563
696 2563
697 2563
698 2563
699 2563
700 2563
701 2563
702 2563
703 2563
704 2563
705 2563
706 2563
707 2563
708 2563
709 2563
710 2563
711 2563
712 2563
713 2563
714 2563
715 2563
716 2563
717 2563
718 2563
719 2563
720 2563
721 2563
722 2563
723 2563
724 2563
725 2563
726 2563
727 2563
728 2563
729 2563
730 2563
731 2563
732 2563
733 2563
734 2563
735 2563
736 2563
737 2563
738 2563
739 2563
740 2563
741 2563
742 2563
743 2563
744 2563
745 2563
746 2563
747 2563
748 2563
749 2563
750 2563
751 2563
752 2563
753 2563
754 2563
755 2563
756 2563
757 2563
758 2563
759 2563
760 2563
761 2563
762 2563
763 2563
764 2563
765 2563
766 2563
767 2563
768 2563
769 2563
770 2563
771 2563
772 2563
773 2563
774 2563
775 2563
776 2563
777 2563
778 2563
779 2563
780 2563
781 2563
782 2563
783 2563
784 2563
785 2563
786 2563
787 2563
788 2563
789 2563
790 2563
791 2563
792 2563
793 2563
794 2563
795 2563
796 2563
797 2563
798 2563
799 2563
800 2563
801 2563
802 2563
803 2563
804 2563
805 2563
806 2563
807 2563
808 2563
809 2563
810 2563
811 2563
812 2563
813 2563
814 2563
815 2563
816 2563
817 2563
818 2563
819 2563
820 2563
821 2563
822 2563
823 2563
824 2563
825 2563
826 2563
827 2563
828 2563
829 2563
830 2563
831 2563
832 2563
833 2563
834 2563
835 2563
836 2563
837 2563
838 2563
839 2563
840 2563
841 2563
842 2563
843 2563
844 2563
845 2563
846 2563
847 2563
848 2563
849 2563
850 2563
851 2563
852 2563
853 2563
854 2563
855 2563
856 2563
857 2563
858 2563
859 2563
860 2563
861 2563
862 2563
863 2563
864 2563
865 2563
866 2563
867 2563
868 2563
869 2563
870 2563
871 2563
872 2563
873 2563
874 2563
875 2563
876 2563
877 2563
878 2563
879 2563
880 2563
881 2563
882 2563
883 2563
884 2563
885 2563
886 2563
887 2563
888 2563
889 2563
890 2563
891 2563
892 2563
893 2563
894 2563
895 2563
896 2563
897 2563
898 2563
899 2563
900 2563
901 2563
902 2563
903 2563
904 2563
905 2563
906 2563
907 2563
908 2563
909 2563
910 2563
911 2563
912 2563
913 2563
914 2563
915 2563
916 2563
917 2563
918 2563
919 2563
920 2563
921 2563
922 2563
923 2563
924 2563
925 2563
926 2563
927 2563
928 2563
929 2563
930 2563
931 2563
932 2563
933 2563
934 2563
935 2563
936 2563
937 2563
938 2563
939 2563
940 2563
941 2563
942 2563
943 2563
944 2563
945 2563
946 2563
947 2563
948 2563
949 2563
950 2563
951 2563
952 2563
953 2563
954 2563
955 2563
956 2563
957 2563
958 2563
959 2563
960 2563
961 2563
962 2563
963 2563
964 2563
965 2563
966 2563
967 2563
968 2563
969 2563
970 2563
971 2563
972 2563
973 2563
974 2563
975 2563
976 2563
977 2563
978 2563
979 2563
980 2563
981 2563
982 2563
983 2563
984 2563
985 2563
986 2563
987 2563
988 2563
989 2563
990 2563
991 2563
992 2563
993 2563
994 2563
995 2563
996 2563
997 2563
998 2563
999 2563
Best: [[30,37,32,20,35,15],
       [17,8,18,34,6,4,2,9,21,7],
       [5,14,16,31,12,13,23,24,22,27],
       [25,28,36,26,33,11,29,3,10,19]], fitness: 2563
